\* rock_paper_scissors *\
Maximize
OBJ: vrs_w
Subject To
_C1: vrs_E.Honda >= 0
_C10: vrs_Dhalsim >= 0
_C11: vrs_Gill >= 0
_C12: vrs_Birdie >= 0
_C13: vrs_Edd >= 0
_C14: vrs_Nash >= 0
_C15: vrs_Guile >= 0
_C16: vrs_Cody >= 0
_C17: vrs_Abigail >= 0
_C18: vrs_Laura >= 0
_C19: vrs_Necalli >= 0
_C2: vrs_Falke >= 0
_C20: vrs_Zangief >= 0
_C21: vrs_Sagat >= 0
_C22: vrs_Rose >= 0
_C23: vrs_Zeku >= 0
_C24: vrs_Lucia >= 0
_C25: vrs_Ibuki >= 0
_C26: vrs_Karin >= 0
_C27: vrs_Ryu >= 0
_C28: vrs_Ken >= 0
_C29: vrs_G >= 0
_C3: vrs_Urien >= 0
_C30: vrs_Kage >= 0
_C31: vrs_Kolin >= 0
_C32: vrs_Juri >= 0
_C33: vrs_Poison >= 0
_C34: vrs_ChunLi >= 0
_C35: vrs_Seth >= 0
_C36: vrs_R.Mika >= 0
_C37: vrs_Akuma >= 0
_C38: vrs_Cammy >= 0
_C39: vrs_Rashid >= 0
_C4: vrs_DICTATOR >= 0
_C40: vrs_Sakura >= 0
_C41: vrs_Menat >= 0
_C42: vrs_Dan >= 0
_C43: vrs_Abigail + vrs_Akuma + vrs_Alex + vrs_BOXER + vrs_Birdie + vrs_Blanka
 + vrs_CLAW + vrs_Cammy + vrs_ChunLi + vrs_Cody + vrs_DICTATOR + vrs_Dan
 + vrs_Dhalsim + vrs_E.Honda + vrs_Edd + vrs_FANG + vrs_Falke + vrs_G
 + vrs_Gill + vrs_Guile + vrs_Ibuki + vrs_Juri + vrs_Kage + vrs_Karin
 + vrs_Ken + vrs_Kolin + vrs_Laura + vrs_Lucia + vrs_Menat + vrs_Nash
 + vrs_Necalli + vrs_Poison + vrs_R.Mika + vrs_Rashid + vrs_Rose + vrs_Ryu
 + vrs_Sagat + vrs_Sakura + vrs_Seth + vrs_Urien + vrs_Zangief + vrs_Zeku = 1
_C44: - 0.018 vrs_Abigail - 0.104 vrs_Akuma - 0.1 vrs_Alex - 0.204 vrs_BOXER
 - 0.074 vrs_Birdie - 0.194 vrs_Blanka - 0.042 vrs_CLAW - 0.242 vrs_Cammy
 - 0.154 vrs_ChunLi - 0.082 vrs_Cody - 0.07 vrs_DICTATOR - 0.214 vrs_Dan
 - 0.234 vrs_Dhalsim - 0.036 vrs_Edd - 0.054 vrs_FANG - 0.052 vrs_Falke
 - 0.196 vrs_G - 0.062 vrs_Gill - 0.036 vrs_Guile - 0.142 vrs_Ibuki
 - 0.178 vrs_Juri - 0.126 vrs_Kage - 0.176 vrs_Karin - 0.108 vrs_Ken
 - 0.154 vrs_Kolin - 0.072 vrs_Laura - 0.17 vrs_Lucia - 0.222 vrs_Menat
 - 0.14 vrs_Nash - 0.128 vrs_Necalli - 0.27 vrs_Poison - 0.132 vrs_R.Mika
 - 0.172 vrs_Rashid - 0.15 vrs_Rose - 0.076 vrs_Ryu - 0.086 vrs_Sagat
 - 0.158 vrs_Sakura - 0.268 vrs_Seth - 0.024 vrs_Urien - 0.04 vrs_Zangief
 - 0.126 vrs_Zeku - vrs_w >= 0
_C45: - 0.05 vrs_Abigail - 0.112 vrs_Akuma - 0.08 vrs_Alex + 0.06 vrs_BOXER
 - 0.072 vrs_Birdie + 0.038 vrs_Blanka + 0.05 vrs_CLAW - 0.138 vrs_Cammy
 - 0.126 vrs_ChunLi - 0.012 vrs_Cody + 0.08 vrs_DICTATOR - 0.166 vrs_Dan
 + 0.086 vrs_Dhalsim + 0.052 vrs_E.Honda - 0.026 vrs_Edd + 0.018 vrs_FANG
 - 0.092 vrs_G + 0.046 vrs_Gill - 0.034 vrs_Guile - 0.072 vrs_Ibuki
 - 0.05 vrs_Juri - 0.1 vrs_Kage - 0.11 vrs_Karin - 0.094 vrs_Ken
 - 0.094 vrs_Kolin - 0.092 vrs_Laura - 0.05 vrs_Lucia - 0.218 vrs_Menat
 - 0.01 vrs_Nash - 0.09 vrs_Necalli - 0.052 vrs_Poison - 0.156 vrs_R.Mika
 - 0.068 vrs_Rashid - 0.086 vrs_Rose - 0.12 vrs_Ryu - 0.168 vrs_Sagat
 - 0.15 vrs_Sakura - 0.134 vrs_Seth + 0.016 vrs_Urien - 0.238 vrs_Zangief
 - 0.058 vrs_Zeku - vrs_w >= 0
_C46: - 0.098 vrs_Abigail - 0.096 vrs_Akuma - 0.04 vrs_Alex - 0.032 vrs_BOXER
 - 0.054 vrs_Birdie - 0.072 vrs_Blanka + 0.02 vrs_CLAW - 0.124 vrs_Cammy
 - 0.114 vrs_ChunLi - 0.05 vrs_Cody + 0.006 vrs_DICTATOR - 0.224 vrs_Dan
 - 0.106 vrs_Dhalsim + 0.026 vrs_E.Honda - 0.056 vrs_Edd + 0.046 vrs_FANG
 - 0.016 vrs_Falke - 0.16 vrs_G - 0.058 vrs_Gill - 0.022 vrs_Guile
 - 0.12 vrs_Ibuki - 0.1 vrs_Juri - 0.104 vrs_Kage - 0.066 vrs_Karin
 - 0.074 vrs_Ken - 0.142 vrs_Kolin - 0.034 vrs_Laura - 0.062 vrs_Lucia
 - 0.144 vrs_Menat - 0.01 vrs_Nash - 0.038 vrs_Necalli - 0.128 vrs_Poison
 - 0.088 vrs_R.Mika - 0.106 vrs_Rashid - 0.112 vrs_Rose - 0.056 vrs_Ryu
 - 0.038 vrs_Sagat - 0.124 vrs_Sakura - 0.154 vrs_Seth - 0.09 vrs_Zangief
 - 0.072 vrs_Zeku - vrs_w >= 0
_C47: - 0.038 vrs_Abigail - 0.104 vrs_Akuma - 0.032 vrs_Alex - 0.084 vrs_BOXER
 - 0.044 vrs_Birdie + 0.052 vrs_Blanka + 0.092 vrs_CLAW - 0.132 vrs_Cammy
 - 0.062 vrs_ChunLi - 0.078 vrs_Cody - 0.106 vrs_Dan - 0.056 vrs_Dhalsim
 + 0.07 vrs_E.Honda - 0.078 vrs_Edd - 0.058 vrs_FANG - 0.08 vrs_Falke
 - 0.076 vrs_G - 0.076 vrs_Gill - 0.046 vrs_Guile - 0.066 vrs_Ibuki
 - 0.146 vrs_Juri - 0.104 vrs_Kage - 0.074 vrs_Karin - 0.048 vrs_Ken
 - 0.064 vrs_Kolin + 0.028 vrs_Laura - 0.072 vrs_Lucia - 0.204 vrs_Menat
 - 0.058 vrs_Nash - 0.074 vrs_Necalli - 0.158 vrs_Poison - 0.04 vrs_R.Mika
 - 0.086 vrs_Rashid - 0.114 vrs_Rose - 0.096 vrs_Ryu - 0.168 vrs_Sagat
 - 0.136 vrs_Sakura - 0.174 vrs_Seth - 0.006 vrs_Urien + 0.018 vrs_Zangief
 - 0.076 vrs_Zeku - vrs_w >= 0
_C48: 0.014 vrs_Abigail - 0.098 vrs_Akuma + 0.032 vrs_Alex - 0.012 vrs_Birdie
 - 0.01 vrs_Blanka - 0.044 vrs_CLAW - 0.142 vrs_Cammy - 0.088 vrs_ChunLi
 - 0.036 vrs_Cody + 0.084 vrs_DICTATOR - 0.076 vrs_Dan - 0.106 vrs_Dhalsim
 + 0.204 vrs_E.Honda + 0.012 vrs_Edd + 0.032 vrs_FANG - 0.06 vrs_Falke
 - 0.1 vrs_G - 0.084 vrs_Gill - 0.06 vrs_Guile - 0.128 vrs_Ibuki
 - 0.122 vrs_Juri - 0.064 vrs_Kage - 0.114 vrs_Karin - 0.092 vrs_Ken
 - 0.098 vrs_Kolin + 0.016 vrs_Laura - 0.088 vrs_Lucia - 0.206 vrs_Menat
 - 0.076 vrs_Nash - 0.088 vrs_Necalli - 0.138 vrs_Poison - 0.082 vrs_R.Mika
 - 0.116 vrs_Rashid - 0.118 vrs_Rose - 0.072 vrs_Ryu - 0.104 vrs_Sagat
 - 0.134 vrs_Sakura - 0.11 vrs_Seth + 0.032 vrs_Urien + 0.042 vrs_Zangief
 - 0.134 vrs_Zeku - vrs_w >= 0
_C49: - 0.18 vrs_Abigail - 0.056 vrs_Akuma - 0.06 vrs_Alex + 0.044 vrs_BOXER
 - 0.056 vrs_Birdie + 0.002 vrs_Blanka - 0.106 vrs_Cammy - 0.032 vrs_ChunLi
 + 0.026 vrs_Cody - 0.092 vrs_DICTATOR - 0.182 vrs_Dan - 0.138 vrs_Dhalsim
 + 0.042 vrs_E.Honda - 0.004 vrs_Edd - 0.066 vrs_FANG - 0.05 vrs_Falke
 - 0.084 vrs_G - 0.052 vrs_Gill + 0.016 vrs_Guile - 0.13 vrs_Ibuki
 - 0.128 vrs_Juri - 0.094 vrs_Kage - 0.062 vrs_Karin - 0.04 vrs_Ken
 + 0.008 vrs_Kolin + 0.062 vrs_Laura - 0.102 vrs_Lucia - 0.194 vrs_Menat
 - 0.102 vrs_Nash - 0.042 vrs_Necalli - 0.106 vrs_Poison - 0.07 vrs_R.Mika
 - 0.088 vrs_Rashid - 0.08 vrs_Rose - 0.042 vrs_Ryu - 0.112 vrs_Sagat
 - 0.074 vrs_Sakura - 0.12 vrs_Seth - 0.02 vrs_Urien - 0.06 vrs_Zangief
 - 0.09 vrs_Zeku - vrs_w >= 0
_C5: vrs_BOXER >= 0
_C50: 0.008 vrs_Abigail - 0.094 vrs_Akuma + 0.028 vrs_Alex + 0.01 vrs_BOXER
 - 0.044 vrs_Birdie - 0.084 vrs_Cammy - 0.102 vrs_ChunLi - 0.046 vrs_Cody
 - 0.052 vrs_DICTATOR - 0.114 vrs_Dan - 0.116 vrs_Dhalsim + 0.194 vrs_E.Honda
 + 0.044 vrs_Edd + 0.058 vrs_FANG - 0.038 vrs_Falke - 0.078 vrs_G
 - 0.02 vrs_Gill + 0.016 vrs_Guile - 0.122 vrs_Ibuki - 0.122 vrs_Juri
 - 0.076 vrs_Kage - 0.098 vrs_Karin - 0.036 vrs_Ken - 0.1 vrs_Kolin
 + 0.032 vrs_Laura - 0.046 vrs_Lucia - 0.246 vrs_Menat - 0.018 vrs_Nash
 - 0.026 vrs_Necalli - 0.156 vrs_Poison - 0.092 vrs_R.Mika - 0.06 vrs_Rashid
 - 0.082 vrs_Rose - 0.078 vrs_Ryu - 0.086 vrs_Sagat - 0.13 vrs_Sakura
 - 0.108 vrs_Seth + 0.072 vrs_Urien - 0.092 vrs_Zangief - vrs_w >= 0
_C51: - 0.028 vrs_Abigail - 0.068 vrs_Akuma - 0.032 vrs_BOXER
 - 0.02 vrs_Birdie - 0.028 vrs_Blanka + 0.06 vrs_CLAW - 0.108 vrs_Cammy
 - 0.092 vrs_ChunLi - 0.016 vrs_Cody + 0.032 vrs_DICTATOR - 0.1 vrs_Dan
 - 0.074 vrs_Dhalsim + 0.1 vrs_E.Honda + 0.064 vrs_Edd + 0.008 vrs_FANG
 + 0.08 vrs_Falke - 0.118 vrs_G - 0.052 vrs_Gill - 0.074 vrs_Guile
 - 0.062 vrs_Ibuki - 0.108 vrs_Juri - 0.092 vrs_Kage - 0.096 vrs_Karin
 - 0.03 vrs_Ken - 0.082 vrs_Kolin + 0.032 vrs_Laura - 0.058 vrs_Lucia
 - 0.218 vrs_Menat - 0.034 vrs_Nash - 0.034 vrs_Necalli - 0.184 vrs_Poison
 - 0.082 vrs_R.Mika - 0.054 vrs_Rashid - 0.122 vrs_Rose - 0.056 vrs_Ryu
 - 0.11 vrs_Sagat - 0.064 vrs_Sakura - 0.118 vrs_Seth + 0.04 vrs_Urien
 - 0.044 vrs_Zangief - 0.04 vrs_Zeku - vrs_w >= 0
_C52: 0.008 vrs_Abigail - 0.052 vrs_Akuma - 0.008 vrs_Alex - 0.032 vrs_BOXER
 - 0.03 vrs_Birdie - 0.058 vrs_Blanka + 0.066 vrs_CLAW - 0.016 vrs_Cammy
 - 0.15 vrs_ChunLi - 0.176 vrs_Cody + 0.058 vrs_DICTATOR - 0.188 vrs_Dan
 - 0.006 vrs_Dhalsim + 0.054 vrs_E.Honda - 0.014 vrs_Edd - 0.018 vrs_Falke
 - 0.014 vrs_G - 0.042 vrs_Gill - 0.062 vrs_Guile - 0.038 vrs_Ibuki
 - 0.072 vrs_Juri - 0.062 vrs_Kage - 0.17 vrs_Karin - 0.004 vrs_Ken
 - 0.072 vrs_Kolin - 0.008 vrs_Laura - 0.058 vrs_Lucia - 0.1 vrs_Menat
 - 0.03 vrs_Nash + 0.062 vrs_Necalli - 0.068 vrs_Poison - 0.126 vrs_R.Mika
 - 0.066 vrs_Rashid - 0.078 vrs_Rose - 0.05 vrs_Ryu - 0.058 vrs_Sagat
 - 0.084 vrs_Sakura - 0.172 vrs_Seth - 0.046 vrs_Urien - 0.024 vrs_Zangief
 - 0.05 vrs_Zeku - vrs_w >= 0
_C53: 0.026 vrs_Abigail - 0.134 vrs_Akuma + 0.074 vrs_Alex + 0.106 vrs_BOXER
 - 0.028 vrs_Birdie + 0.116 vrs_Blanka + 0.138 vrs_CLAW - 0.038 vrs_Cammy
 - 0.138 vrs_ChunLi - 0.138 vrs_Cody + 0.056 vrs_DICTATOR - 0.142 vrs_Dan
 + 0.234 vrs_E.Honda - 0.078 vrs_Edd + 0.006 vrs_FANG - 0.086 vrs_Falke
 - 0.088 vrs_G - 0.054 vrs_Gill - 0.052 vrs_Guile + 0.034 vrs_Ibuki
 - 0.016 vrs_Juri - 0.072 vrs_Kage - 0.058 vrs_Karin - 0.068 vrs_Ken
 + 0.036 vrs_Kolin + 0.062 vrs_Laura - 0.034 vrs_Lucia - 0.192 vrs_Menat
 - 0.028 vrs_Nash + 0.028 vrs_Necalli - 0.116 vrs_Poison + 0.004 vrs_R.Mika
 + 0.07 vrs_Rashid - 0.024 vrs_Rose - 0.124 vrs_Ryu - 0.164 vrs_Sagat
 - 0.152 vrs_Sakura - 0.078 vrs_Seth + 0.106 vrs_Urien - 0.326 vrs_Zangief
 + 0.064 vrs_Zeku - vrs_w >= 0
_C54: - 0.006 vrs_Abigail - 0.078 vrs_Akuma + 0.052 vrs_Alex + 0.084 vrs_BOXER
 + 0.018 vrs_Birdie + 0.02 vrs_Blanka + 0.052 vrs_CLAW - 0.118 vrs_Cammy
 - 0.042 vrs_ChunLi + 0.044 vrs_Cody + 0.076 vrs_DICTATOR - 0.172 vrs_Dan
 + 0.054 vrs_Dhalsim + 0.062 vrs_E.Honda + 0.002 vrs_Edd + 0.042 vrs_FANG
 - 0.046 vrs_Falke - 0.108 vrs_G - 0.014 vrs_Guile - 0.056 vrs_Ibuki
 - 0.032 vrs_Juri - 0.102 vrs_Kage - 0.058 vrs_Karin - 0.102 vrs_Ken
 - 0.084 vrs_Kolin + 0.004 vrs_Laura - 0.106 vrs_Lucia - 0.028 vrs_Menat
 - 0.034 vrs_Nash - 0.082 vrs_Necalli - 0.048 vrs_Poison - 0.162 vrs_R.Mika
 - 0.06 vrs_Rashid - 0.044 vrs_Rose - 0.074 vrs_Ryu + 0.012 vrs_Sagat
 - 0.086 vrs_Sakura - 0.128 vrs_Seth + 0.058 vrs_Urien - 0.08 vrs_Zangief
 - 0.094 vrs_Zeku - vrs_w >= 0
_C55: 0.092 vrs_Abigail - 0.084 vrs_Akuma + 0.02 vrs_Alex + 0.012 vrs_BOXER
 + 0.044 vrs_Blanka + 0.056 vrs_CLAW - 0.086 vrs_Cammy - 0.084 vrs_ChunLi
 - 0.046 vrs_Cody + 0.044 vrs_DICTATOR - 0.198 vrs_Dan + 0.028 vrs_Dhalsim
 + 0.074 vrs_E.Honda - 0.018 vrs_Edd + 0.03 vrs_FANG + 0.072 vrs_Falke
 - 0.074 vrs_G - 0.018 vrs_Gill - 0.008 vrs_Guile - 0.034 vrs_Ibuki
 - 0.106 vrs_Juri - 0.048 vrs_Kage - 0.124 vrs_Karin - 0.026 vrs_Ken
 - 0.094 vrs_Kolin + 0.002 vrs_Laura + 0.002 vrs_Lucia - 0.102 vrs_Menat
 - 0.026 vrs_Nash - 0.04 vrs_Necalli - 0.124 vrs_Poison - 0.082 vrs_R.Mika
 - 0.056 vrs_Rashid - 0.046 vrs_Rose - 0.068 vrs_Ryu + 0.01 vrs_Sagat
 - 0.07 vrs_Sakura - 0.148 vrs_Seth + 0.054 vrs_Urien - 0.14 vrs_Zangief
 - 0.052 vrs_Zeku - vrs_w >= 0
_C56: - 0.086 vrs_Abigail - 0.064 vrs_Akuma - 0.064 vrs_Alex - 0.012 vrs_BOXER
 + 0.018 vrs_Birdie - 0.044 vrs_Blanka + 0.004 vrs_CLAW - 0.154 vrs_Cammy
 - 0.088 vrs_ChunLi - 0.016 vrs_Cody + 0.078 vrs_DICTATOR - 0.17 vrs_Dan
 + 0.078 vrs_Dhalsim + 0.036 vrs_E.Honda + 0.014 vrs_FANG + 0.026 vrs_Falke
 - 0.022 vrs_G - 0.002 vrs_Gill + 0.038 vrs_Guile - 0.092 vrs_Ibuki
 - 0.074 vrs_Juri - 0.08 vrs_Kage - 0.04 vrs_Karin - 0.012 vrs_Ken
 - 0.116 vrs_Kolin - 0.062 vrs_Laura - 0.072 vrs_Lucia - 0.162 vrs_Menat
 - 0.014 vrs_Nash - 0.054 vrs_Necalli - 0.066 vrs_Poison - 0.122 vrs_R.Mika
 - 0.152 vrs_Rashid - 0.022 vrs_Rose + 0.02 vrs_Ryu + 0.002 vrs_Sagat
 - 0.08 vrs_Sakura - 0.118 vrs_Seth + 0.056 vrs_Urien - 0.048 vrs_Zangief
 + 0.02 vrs_Zeku - vrs_w >= 0
_C57: - 0.006 vrs_Abigail - 0.048 vrs_Akuma + 0.034 vrs_Alex + 0.076 vrs_BOXER
 + 0.026 vrs_Birdie + 0.018 vrs_Blanka + 0.102 vrs_CLAW - 0.044 vrs_Cammy
 - 0.058 vrs_ChunLi - 0.002 vrs_Cody + 0.058 vrs_DICTATOR - 0.08 vrs_Dan
 + 0.028 vrs_Dhalsim + 0.14 vrs_E.Honda + 0.014 vrs_Edd + 0.03 vrs_FANG
 + 0.01 vrs_Falke - 0.04 vrs_G + 0.034 vrs_Gill - 0.004 vrs_Guile
 - 0.02 vrs_Ibuki - 0.048 vrs_Juri - 0.024 vrs_Kage - 0.038 vrs_Karin
 - 0.07 vrs_Ken - 0.042 vrs_Kolin + 0.072 vrs_Laura - 0.02 vrs_Lucia
 - 0.152 vrs_Menat + 0.03 vrs_Necalli - 0.12 vrs_Poison - 0.05 vrs_R.Mika
 - 0.032 vrs_Rashid - 0.01 vrs_Rose - 0.086 vrs_Ryu - 0.048 vrs_Sagat
 - 0.098 vrs_Sakura - 0.09 vrs_Seth + 0.01 vrs_Urien - 0.104 vrs_Zangief
 - vrs_w >= 0
_C58: - 0.072 vrs_Abigail - 0.104 vrs_Akuma + 0.074 vrs_Alex + 0.06 vrs_BOXER
 + 0.008 vrs_Birdie - 0.016 vrs_Blanka - 0.016 vrs_CLAW - 0.054 vrs_Cammy
 - 0.006 vrs_ChunLi - 0.024 vrs_Cody + 0.046 vrs_DICTATOR - 0.082 vrs_Dan
 + 0.052 vrs_Dhalsim + 0.036 vrs_E.Honda - 0.038 vrs_Edd + 0.062 vrs_FANG
 + 0.034 vrs_Falke - 0.076 vrs_G + 0.014 vrs_Gill + 0.022 vrs_Ibuki
 - 0.004 vrs_Juri - 0.032 vrs_Kage + 0.058 vrs_Karin - 0.068 vrs_Ken
 - 0.046 vrs_Kolin + 0.042 vrs_Laura - 0.014 vrs_Lucia - 0.068 vrs_Menat
 + 0.004 vrs_Nash + 0.04 vrs_Necalli + 0.032 vrs_Poison - 0.04 vrs_R.Mika
 - 0.086 vrs_Rashid + 0.048 vrs_Rose - 0.054 vrs_Ryu - 0.122 vrs_Sagat
 - 0.076 vrs_Sakura - 0.022 vrs_Seth + 0.022 vrs_Urien + 0.054 vrs_Zangief
 + 0.006 vrs_Zeku - vrs_w >= 0
_C59: - 0.034 vrs_Abigail - 0.054 vrs_Akuma + 0.016 vrs_Alex + 0.036 vrs_BOXER
 + 0.046 vrs_Birdie + 0.046 vrs_Blanka - 0.026 vrs_CLAW - 0.126 vrs_Cammy
 - 0.042 vrs_ChunLi + 0.078 vrs_DICTATOR - 0.108 vrs_Dan + 0.138 vrs_Dhalsim
 + 0.082 vrs_E.Honda + 0.016 vrs_Edd + 0.176 vrs_FANG + 0.012 vrs_Falke
 - 0.092 vrs_G - 0.044 vrs_Gill + 0.024 vrs_Guile - 0.04 vrs_Ibuki
 - 0.116 vrs_Juri - 0.036 vrs_Kage - 0.04 vrs_Karin - 0.044 vrs_Ken
 - 0.024 vrs_Kolin + 0.05 vrs_Laura - 0.046 vrs_Lucia - 0.108 vrs_Menat
 + 0.002 vrs_Nash - 0.018 vrs_Necalli - 0.034 vrs_Poison - 0.11 vrs_R.Mika
 - 0.128 vrs_Rashid + 0.024 vrs_Rose - 0.014 vrs_Ryu + 0.036 vrs_Sagat
 - 0.076 vrs_Sakura - 0.076 vrs_Seth + 0.05 vrs_Urien - 0.026 vrs_Zangief
 - 0.042 vrs_Zeku - vrs_w >= 0
_C6: vrs_CLAW >= 0
_C60: - 0.034 vrs_Akuma + 0.028 vrs_Alex - 0.014 vrs_BOXER - 0.092 vrs_Birdie
 - 0.008 vrs_Blanka + 0.18 vrs_CLAW - 0.108 vrs_Cammy - 0.038 vrs_ChunLi
 + 0.034 vrs_Cody + 0.038 vrs_DICTATOR - 0.106 vrs_Dan - 0.026 vrs_Dhalsim
 + 0.018 vrs_E.Honda + 0.086 vrs_Edd - 0.008 vrs_FANG + 0.05 vrs_Falke
 - 0.108 vrs_G + 0.006 vrs_Gill + 0.072 vrs_Guile - 0.058 vrs_Ibuki
 - 0.046 vrs_Juri - 0.036 vrs_Kage - 0.048 vrs_Karin + 0.034 vrs_Ken
 - 0.076 vrs_Kolin - 0.016 vrs_Laura + 0.024 vrs_Lucia - 0.164 vrs_Menat
 + 0.006 vrs_Nash + 0.082 vrs_Necalli - 0.152 vrs_Poison - 0.116 vrs_R.Mika
 - 0.016 vrs_Rashid - 0.08 vrs_Rose - 0.004 vrs_Ryu - 0.028 vrs_Sagat
 + 0.006 vrs_Sakura - 0.114 vrs_Seth + 0.098 vrs_Urien - 0.142 vrs_Zangief
 - 0.02 vrs_Zeku - vrs_w >= 0
_C61: 0.016 vrs_Abigail - 0.042 vrs_Akuma - 0.032 vrs_Alex - 0.016 vrs_BOXER
 - 0.002 vrs_Birdie - 0.032 vrs_Blanka - 0.062 vrs_CLAW - 0.042 vrs_Cammy
 - 0.07 vrs_ChunLi - 0.05 vrs_Cody - 0.028 vrs_DICTATOR - 0.092 vrs_Dan
 - 0.062 vrs_Dhalsim + 0.072 vrs_E.Honda + 0.062 vrs_Edd + 0.008 vrs_FANG
 + 0.092 vrs_Falke - 0.048 vrs_G - 0.004 vrs_Gill - 0.042 vrs_Guile
 + 0.008 vrs_Ibuki - 0.01 vrs_Juri + 0.002 vrs_Kage - 0.038 vrs_Karin
 + 0.036 vrs_Ken - 0.068 vrs_Kolin + 0.018 vrs_Lucia - 0.162 vrs_Menat
 - 0.072 vrs_Nash - 0.002 vrs_Necalli - 0.042 vrs_Poison - 0.056 vrs_R.Mika
 - 0.114 vrs_Rashid - 0.072 vrs_Rose + 0.018 vrs_Ryu + 0.018 vrs_Sagat
 + 0.008 vrs_Sakura - 0.046 vrs_Seth + 0.034 vrs_Urien + 0.1 vrs_Zangief
 - 0.052 vrs_Zeku - vrs_w >= 0
_C62: - 0.082 vrs_Abigail - 0.046 vrs_Akuma + 0.034 vrs_Alex + 0.09 vrs_BOXER
 + 0.04 vrs_Birdie + 0.026 vrs_Blanka + 0.042 vrs_CLAW - 0.054 vrs_Cammy
 - 0.08 vrs_ChunLi + 0.018 vrs_Cody + 0.074 vrs_DICTATOR - 0.064 vrs_Dan
 - 0.028 vrs_Dhalsim + 0.128 vrs_E.Honda + 0.054 vrs_Edd - 0.062 vrs_FANG
 + 0.09 vrs_Falke - 0.006 vrs_G + 0.082 vrs_Gill - 0.04 vrs_Guile
 - 0.052 vrs_Ibuki - 0.008 vrs_Juri + 0.012 vrs_Kage - 0.038 vrs_Karin
 - 0.008 vrs_Ken + 0.016 vrs_Kolin + 0.002 vrs_Laura - 0.164 vrs_Menat
 - 0.03 vrs_Nash + 0.008 vrs_Poison - 0.014 vrs_R.Mika - 0.124 vrs_Rashid
 - 0.034 vrs_Rose - 0.022 vrs_Ryu - 0.052 vrs_Sagat - 0.052 vrs_Sakura
 - 0.014 vrs_Seth + 0.038 vrs_Urien + 0.014 vrs_Zangief - 0.056 vrs_Zeku
 - vrs_w >= 0
_C63: 0.142 vrs_Abigail - 0.108 vrs_Akuma + 0.044 vrs_Alex - 0.042 vrs_BOXER
 + 0.14 vrs_Birdie + 0.092 vrs_Blanka + 0.06 vrs_CLAW - 0.102 vrs_Cammy
 - 0.092 vrs_ChunLi + 0.026 vrs_Cody - 0.018 vrs_DICTATOR - 0.138 vrs_Dan
 + 0.326 vrs_Dhalsim + 0.04 vrs_E.Honda + 0.048 vrs_Edd + 0.024 vrs_FANG
 + 0.238 vrs_Falke + 0.052 vrs_G + 0.082 vrs_Gill - 0.054 vrs_Guile
 - 0.05 vrs_Ibuki - 0.042 vrs_Juri - 0.088 vrs_Kage - 0.058 vrs_Karin
 - 0.002 vrs_Ken - 0.07 vrs_Kolin - 0.1 vrs_Laura + 0.026 vrs_Lucia
 + 0.094 vrs_Menat + 0.104 vrs_Nash - 0.014 vrs_Necalli + 0.114 vrs_Poison
 - 0.128 vrs_R.Mika - 0.068 vrs_Rashid + 0.032 vrs_Rose - 0.034 vrs_Ryu
 + 0.11 vrs_Sagat - 0.036 vrs_Sakura - 0.044 vrs_Seth + 0.09 vrs_Urien
 + 0.038 vrs_Zeku - vrs_w >= 0
_C64: 0.028 vrs_Abigail - 0.056 vrs_Akuma + 0.11 vrs_Alex + 0.106 vrs_BOXER
 - 0.01 vrs_Birdie + 0.086 vrs_Blanka + 0.112 vrs_CLAW - 0.112 vrs_Cammy
 - 0.032 vrs_ChunLi - 0.036 vrs_Cody + 0.168 vrs_DICTATOR - 0.106 vrs_Dan
 + 0.164 vrs_Dhalsim + 0.086 vrs_E.Honda - 0.002 vrs_Edd + 0.058 vrs_FANG
 + 0.168 vrs_Falke - 0.098 vrs_G - 0.012 vrs_Gill + 0.122 vrs_Guile
 + 0.016 vrs_Ibuki - 0.056 vrs_Juri - 0.028 vrs_Kage - 0.01 vrs_Karin
 - 0.092 vrs_Ken - 0.046 vrs_Kolin - 0.016 vrs_Laura - 0.01 vrs_Lucia
 - 0.016 vrs_Menat + 0.048 vrs_Nash + 0.052 vrs_Necalli + 0.044 vrs_Poison
 - 0.038 vrs_R.Mika + 0.002 vrs_Rashid + 0.1 vrs_Rose - 0.046 vrs_Ryu
 - 0.114 vrs_Sakura - 0.086 vrs_Seth + 0.038 vrs_Urien - 0.11 vrs_Zangief
 - 0.002 vrs_Zeku - vrs_w >= 0
_C65: 0.08 vrs_Abigail - 0.06 vrs_Akuma + 0.122 vrs_Alex + 0.118 vrs_BOXER
 + 0.046 vrs_Birdie + 0.082 vrs_Blanka + 0.08 vrs_CLAW - 0.03 vrs_Cammy
 - 0.036 vrs_ChunLi - 0.024 vrs_Cody + 0.114 vrs_DICTATOR - 0.076 vrs_Dan
 + 0.024 vrs_Dhalsim + 0.15 vrs_E.Honda + 0.022 vrs_Edd + 0.078 vrs_FANG
 + 0.086 vrs_Falke - 0.036 vrs_G + 0.044 vrs_Gill - 0.048 vrs_Guile
 + 0.02 vrs_Ibuki - 0.036 vrs_Juri - 0.002 vrs_Kage - 0.02 vrs_Ken
 - 0.056 vrs_Kolin + 0.072 vrs_Laura - 0.02 vrs_Lucia - 0.062 vrs_Menat
 + 0.01 vrs_Nash + 0.034 vrs_Necalli - 0.066 vrs_Poison - 0.044 vrs_R.Mika
 - 0.01 vrs_Rashid - 0.076 vrs_Ryu - 0.1 vrs_Sagat - 0.094 vrs_Sakura
 - 0.074 vrs_Seth + 0.112 vrs_Urien - 0.032 vrs_Zangief + 0.006 vrs_Zeku
 - vrs_w >= 0
_C66: 0.02 vrs_Abigail - 0.08 vrs_Akuma + 0.04 vrs_Alex + 0.134 vrs_BOXER
 + 0.052 vrs_Birdie + 0.09 vrs_CLAW - 0.092 vrs_Cammy + 0.026 vrs_ChunLi
 + 0.042 vrs_Cody + 0.076 vrs_DICTATOR - 0.114 vrs_Dan - 0.064 vrs_Dhalsim
 + 0.126 vrs_E.Honda - 0.02 vrs_Edd + 0.05 vrs_FANG + 0.058 vrs_Falke
 + 0.02 vrs_G + 0.094 vrs_Gill - 0.006 vrs_Guile + 0.002 vrs_Ibuki
 - 0.026 vrs_Juri - 0.042 vrs_Kage - 0.01 vrs_Karin - 0.026 vrs_Ken
 - 0.002 vrs_Kolin + 0.052 vrs_Laura - 0.004 vrs_Lucia - 0.144 vrs_Menat
 + 0.056 vrs_Necalli - 0.058 vrs_Poison - 0.03 vrs_R.Mika - 0.074 vrs_Rashid
 - 0.006 vrs_Rose - 0.03 vrs_Ryu + 0.002 vrs_Sagat - 0.078 vrs_Sakura
 - 0.03 vrs_Seth + 0.072 vrs_Urien - 0.038 vrs_Zangief - vrs_w >= 0
_C67: - 0.024 vrs_Abigail - 0.05 vrs_Akuma + 0.058 vrs_Alex + 0.088 vrs_BOXER
 - 0.002 vrs_Birdie + 0.046 vrs_Blanka + 0.102 vrs_CLAW - 0.046 vrs_Cammy
 - 0.002 vrs_ChunLi + 0.046 vrs_Cody + 0.072 vrs_DICTATOR - 0.066 vrs_Dan
 + 0.034 vrs_Dhalsim + 0.17 vrs_E.Honda + 0.072 vrs_Edd + 0.058 vrs_FANG
 + 0.05 vrs_Falke - 0.024 vrs_G + 0.106 vrs_Gill + 0.014 vrs_Guile
 - 0.02 vrs_Ibuki - 0.006 vrs_Juri - 0.01 vrs_Kage - 0.002 vrs_Karin
 - 0.016 vrs_Ken - 0.008 vrs_Kolin - 0.018 vrs_Laura - 0.08 vrs_Menat
 + 0.02 vrs_Nash + 0.002 vrs_Necalli - 0.05 vrs_Poison - 0.048 vrs_R.Mika
 - 0.068 vrs_Rashid + 0.02 vrs_Rose - 0.012 vrs_Ryu + 0.01 vrs_Sagat
 - 0.06 vrs_Sakura - 0.042 vrs_Seth + 0.062 vrs_Urien - 0.026 vrs_Zangief
 + 0.004 vrs_Zeku - vrs_w >= 0
_C68: 0.058 vrs_Abigail - 0.02 vrs_Akuma + 0.062 vrs_Alex + 0.13 vrs_BOXER
 + 0.034 vrs_Birdie + 0.122 vrs_Blanka + 0.13 vrs_CLAW - 0.004 vrs_Cammy
 - 0.032 vrs_ChunLi + 0.04 vrs_Cody + 0.066 vrs_DICTATOR - 0.034 vrs_Dan
 - 0.034 vrs_Dhalsim + 0.142 vrs_E.Honda + 0.092 vrs_Edd + 0.038 vrs_FANG
 + 0.072 vrs_Falke + 0.05 vrs_G + 0.058 vrs_Gill - 0.022 vrs_Guile
 - 0.01 vrs_Juri - 0.008 vrs_Kage - 0.008 vrs_Karin - 0.024 vrs_Ken
 - 0.054 vrs_Kolin - 0.008 vrs_Laura + 0.02 vrs_Lucia - 0.062 vrs_Menat
 + 0.02 vrs_Nash + 0.052 vrs_Necalli - 0.062 vrs_Poison - 0.018 vrs_R.Mika
 - 0.068 vrs_Rashid - 0.02 vrs_Rose - 0.01 vrs_Ryu - 0.016 vrs_Sagat
 - 0.062 vrs_Sakura + 0.034 vrs_Seth + 0.12 vrs_Urien + 0.05 vrs_Zangief
 - 0.002 vrs_Zeku - vrs_w >= 0
_C69: 0.048 vrs_Abigail - 0.048 vrs_Akuma + 0.096 vrs_Alex + 0.114 vrs_BOXER
 + 0.124 vrs_Birdie + 0.098 vrs_Blanka + 0.062 vrs_CLAW - 0.028 vrs_Cammy
 + 0.016 vrs_ChunLi + 0.04 vrs_Cody + 0.074 vrs_DICTATOR - 0.038 vrs_Dan
 + 0.058 vrs_Dhalsim + 0.176 vrs_E.Honda + 0.04 vrs_Edd + 0.17 vrs_FANG
 + 0.11 vrs_Falke + 0.026 vrs_G + 0.058 vrs_Gill - 0.058 vrs_Guile
 + 0.008 vrs_Ibuki - 0.002 vrs_Juri - 0.024 vrs_Kage - 0.028 vrs_Ken
 + 0.038 vrs_Laura + 0.002 vrs_Lucia - 0.068 vrs_Menat + 0.038 vrs_Nash
 + 0.038 vrs_Necalli - 0.018 vrs_Poison - 0.046 vrs_R.Mika - 0.054 vrs_Rashid
 - 0.014 vrs_Ryu + 0.01 vrs_Sagat - 0.066 vrs_Sakura + 0.028 vrs_Seth
 + 0.066 vrs_Urien + 0.058 vrs_Zangief + 0.01 vrs_Zeku - vrs_w >= 0
_C7: vrs_Blanka >= 0
_C70: 0.004 vrs_Abigail - 0.014 vrs_Akuma + 0.056 vrs_Alex + 0.072 vrs_BOXER
 + 0.068 vrs_Birdie + 0.078 vrs_Blanka + 0.042 vrs_CLAW - 0.026 vrs_Cammy
 - 0.01 vrs_ChunLi + 0.014 vrs_Cody + 0.096 vrs_DICTATOR - 0.072 vrs_Dan
 + 0.124 vrs_Dhalsim + 0.076 vrs_E.Honda - 0.02 vrs_Edd + 0.05 vrs_FANG
 + 0.12 vrs_Falke + 0.028 vrs_G + 0.074 vrs_Gill + 0.054 vrs_Guile
 + 0.01 vrs_Ibuki - 0.014 vrs_Juri - 0.018 vrs_Kage + 0.014 vrs_Karin
 - 0.032 vrs_Ken - 0.016 vrs_Kolin - 0.018 vrs_Laura + 0.012 vrs_Lucia
 - 0.002 vrs_Menat + 0.086 vrs_Nash + 0.022 vrs_Necalli + 0.074 vrs_Poison
 - 0.06 vrs_R.Mika - 0.05 vrs_Rashid + 0.076 vrs_Rose + 0.046 vrs_Sagat
 - 0.054 vrs_Sakura - 0.026 vrs_Seth + 0.056 vrs_Urien + 0.034 vrs_Zangief
 + 0.03 vrs_Zeku - vrs_w >= 0
_C71: - 0.034 vrs_Abigail - 0.032 vrs_Akuma + 0.03 vrs_Alex + 0.092 vrs_BOXER
 + 0.026 vrs_Birdie + 0.036 vrs_Blanka + 0.04 vrs_CLAW - 0.026 vrs_Cammy
 - 0.016 vrs_ChunLi + 0.044 vrs_Cody + 0.048 vrs_DICTATOR - 0.068 vrs_Dan
 + 0.068 vrs_Dhalsim + 0.108 vrs_E.Honda + 0.012 vrs_Edd + 0.004 vrs_FANG
 + 0.094 vrs_Falke - 0.012 vrs_G + 0.102 vrs_Gill + 0.068 vrs_Guile
 + 0.024 vrs_Ibuki - 0.022 vrs_Juri + 0.002 vrs_Kage + 0.028 vrs_Karin
 - 0.008 vrs_Kolin - 0.036 vrs_Laura + 0.016 vrs_Lucia - 0.04 vrs_Menat
 + 0.07 vrs_Nash + 0.008 vrs_Necalli + 0.026 vrs_Poison - 0.056 vrs_R.Mika
 - 0.07 vrs_Rashid + 0.02 vrs_Rose + 0.032 vrs_Ryu + 0.092 vrs_Sagat
 - 0.04 vrs_Sakura + 0.022 vrs_Seth + 0.074 vrs_Urien + 0.002 vrs_Zangief
 + 0.026 vrs_Zeku - vrs_w >= 0
_C72: 0.108 vrs_Abigail - 0.014 vrs_Akuma + 0.118 vrs_Alex + 0.1 vrs_BOXER
 + 0.074 vrs_Birdie + 0.078 vrs_Blanka + 0.084 vrs_CLAW - 0.076 vrs_Cammy
 - 0.01 vrs_ChunLi + 0.092 vrs_Cody + 0.076 vrs_DICTATOR - 0.09 vrs_Dan
 + 0.088 vrs_Dhalsim + 0.196 vrs_E.Honda + 0.022 vrs_Edd + 0.014 vrs_FANG
 + 0.092 vrs_Falke + 0.108 vrs_Gill + 0.076 vrs_Guile - 0.05 vrs_Ibuki
 - 0.044 vrs_Juri - 0.022 vrs_Kage - 0.026 vrs_Karin + 0.012 vrs_Ken
 - 0.056 vrs_Kolin + 0.048 vrs_Laura + 0.024 vrs_Lucia - 0.084 vrs_Menat
 + 0.04 vrs_Nash + 0.006 vrs_Necalli + 0.014 vrs_Poison + 0.026 vrs_R.Mika
 - 0.016 vrs_Rashid + 0.036 vrs_Rose - 0.028 vrs_Ryu + 0.098 vrs_Sagat
 - 0.028 vrs_Sakura - 0.06 vrs_Seth + 0.16 vrs_Urien - 0.052 vrs_Zangief
 - 0.02 vrs_Zeku - vrs_w >= 0
_C73: 0.036 vrs_Abigail - 0.024 vrs_Akuma + 0.092 vrs_Alex + 0.064 vrs_BOXER
 + 0.048 vrs_Birdie + 0.076 vrs_Blanka + 0.094 vrs_CLAW - 0.032 vrs_Cammy
 - 0.022 vrs_ChunLi + 0.036 vrs_Cody + 0.106 vrs_DICTATOR - 0.058 vrs_Dan
 + 0.072 vrs_Dhalsim + 0.126 vrs_E.Honda + 0.08 vrs_Edd + 0.062 vrs_FANG
 + 0.1 vrs_Falke + 0.022 vrs_G + 0.102 vrs_Gill + 0.034 vrs_Guile
 + 0.008 vrs_Ibuki + 0.004 vrs_Juri + 0.024 vrs_Karin + 0.024 vrs_Kolin
 - 0.002 vrs_Laura + 0.01 vrs_Lucia - 0.04 vrs_Menat + 0.024 vrs_Nash
 - 0.012 vrs_Necalli - 0.042 vrs_Poison - 0.034 vrs_R.Mika - 0.064 vrs_Rashid
 + 0.002 vrs_Rose + 0.018 vrs_Ryu + 0.028 vrs_Sagat - 0.054 vrs_Sakura
 + 0.06 vrs_Seth + 0.104 vrs_Urien + 0.088 vrs_Zangief + 0.042 vrs_Zeku
 - vrs_w >= 0
_C74: 0.076 vrs_Abigail - 0.034 vrs_Akuma + 0.082 vrs_Alex + 0.098 vrs_BOXER
 + 0.094 vrs_Birdie + 0.1 vrs_Blanka - 0.008 vrs_CLAW - 0.064 vrs_Cammy
 + 0.006 vrs_ChunLi + 0.024 vrs_Cody + 0.064 vrs_DICTATOR - 0.09 vrs_Dan
 - 0.036 vrs_Dhalsim + 0.154 vrs_E.Honda + 0.116 vrs_Edd + 0.072 vrs_FANG
 + 0.094 vrs_Falke + 0.056 vrs_G + 0.084 vrs_Gill + 0.046 vrs_Guile
 + 0.054 vrs_Ibuki + 0.002 vrs_Juri - 0.024 vrs_Kage + 0.008 vrs_Ken
 + 0.068 vrs_Laura + 0.008 vrs_Lucia - 0.03 vrs_Menat + 0.042 vrs_Nash
 - 0.016 vrs_Necalli + 0.024 vrs_Poison - 0.046 vrs_R.Mika - 0.068 vrs_Rashid
 + 0.056 vrs_Rose + 0.016 vrs_Ryu + 0.046 vrs_Sagat - 0.002 vrs_Sakura
 - 0.024 vrs_Seth + 0.142 vrs_Urien + 0.07 vrs_Zangief + 0.002 vrs_Zeku
 - vrs_w >= 0
_C75: 0.046 vrs_Abigail - 0.022 vrs_Akuma + 0.108 vrs_Alex + 0.122 vrs_BOXER
 + 0.106 vrs_Birdie + 0.122 vrs_Blanka + 0.128 vrs_CLAW - 0.054 vrs_Cammy
 - 0.016 vrs_ChunLi + 0.116 vrs_Cody + 0.146 vrs_DICTATOR - 0.048 vrs_Dan
 + 0.016 vrs_Dhalsim + 0.178 vrs_E.Honda + 0.074 vrs_Edd + 0.072 vrs_FANG
 + 0.05 vrs_Falke + 0.044 vrs_G + 0.032 vrs_Gill + 0.004 vrs_Guile
 + 0.01 vrs_Ibuki - 0.004 vrs_Kage + 0.002 vrs_Karin + 0.022 vrs_Ken
 - 0.002 vrs_Kolin + 0.01 vrs_Laura + 0.006 vrs_Lucia - 0.102 vrs_Menat
 + 0.048 vrs_Nash + 0.01 vrs_Necalli - 0.01 vrs_Poison + 0.008 vrs_R.Mika
 - 0.036 vrs_Rashid + 0.036 vrs_Rose + 0.014 vrs_Ryu + 0.056 vrs_Sagat
 - 0.068 vrs_Sakura - 0.042 vrs_Seth + 0.1 vrs_Urien + 0.042 vrs_Zangief
 + 0.026 vrs_Zeku - vrs_w >= 0
_C76: 0.152 vrs_Abigail - 0.05 vrs_Akuma + 0.184 vrs_Alex + 0.138 vrs_BOXER
 + 0.124 vrs_Birdie + 0.156 vrs_Blanka + 0.106 vrs_CLAW + 0.002 vrs_Cammy
 + 0.008 vrs_ChunLi + 0.034 vrs_Cody + 0.158 vrs_DICTATOR - 0.066 vrs_Dan
 + 0.116 vrs_Dhalsim + 0.27 vrs_E.Honda + 0.066 vrs_Edd + 0.068 vrs_FANG
 + 0.052 vrs_Falke - 0.014 vrs_G + 0.048 vrs_Gill - 0.032 vrs_Guile
 + 0.062 vrs_Ibuki + 0.01 vrs_Juri + 0.042 vrs_Kage + 0.018 vrs_Karin
 - 0.026 vrs_Ken - 0.024 vrs_Kolin + 0.042 vrs_Laura + 0.05 vrs_Lucia
 - 0.052 vrs_Menat + 0.12 vrs_Nash - 0.008 vrs_Necalli + 0.062 vrs_R.Mika
 + 0.108 vrs_Rashid + 0.066 vrs_Rose - 0.074 vrs_Ryu - 0.044 vrs_Sagat
 - 0.018 vrs_Sakura - 0.02 vrs_Seth + 0.128 vrs_Urien - 0.114 vrs_Zangief
 + 0.058 vrs_Zeku - vrs_w >= 0
_C77: 0.038 vrs_Abigail + 0.01 vrs_Akuma + 0.092 vrs_Alex + 0.088 vrs_BOXER
 + 0.084 vrs_Birdie + 0.102 vrs_Blanka + 0.032 vrs_CLAW + 0.008 vrs_Cammy
 + 0.042 vrs_Cody + 0.062 vrs_DICTATOR - 0.028 vrs_Dan + 0.138 vrs_Dhalsim
 + 0.154 vrs_E.Honda + 0.088 vrs_Edd + 0.15 vrs_FANG + 0.126 vrs_Falke
 + 0.01 vrs_G + 0.042 vrs_Gill + 0.006 vrs_Guile + 0.032 vrs_Ibuki
 + 0.016 vrs_Juri + 0.022 vrs_Kage - 0.016 vrs_Karin + 0.016 vrs_Ken
 - 0.006 vrs_Kolin + 0.07 vrs_Laura + 0.002 vrs_Lucia + 0.074 vrs_Menat
 + 0.058 vrs_Nash + 0.08 vrs_Necalli - 0.008 vrs_Poison + 0.026 vrs_R.Mika
 + 0.012 vrs_Rashid + 0.036 vrs_Rose + 0.01 vrs_Ryu + 0.034 vrs_Sagat
 - 0.004 vrs_Sakura - 0.016 vrs_Seth + 0.114 vrs_Urien + 0.092 vrs_Zangief
 - 0.026 vrs_Zeku - vrs_w >= 0
_C78: 0.114 vrs_Abigail - 0.048 vrs_Akuma + 0.118 vrs_Alex + 0.11 vrs_BOXER
 + 0.148 vrs_Birdie + 0.108 vrs_Blanka + 0.12 vrs_CLAW - 0.086 vrs_Cammy
 + 0.016 vrs_ChunLi + 0.076 vrs_Cody + 0.174 vrs_DICTATOR - 0.034 vrs_Dan
 + 0.078 vrs_Dhalsim + 0.268 vrs_E.Honda + 0.118 vrs_Edd + 0.172 vrs_FANG
 + 0.136 vrs_Falke + 0.06 vrs_G + 0.128 vrs_Gill + 0.022 vrs_Guile
 - 0.034 vrs_Ibuki + 0.042 vrs_Juri - 0.06 vrs_Kage - 0.028 vrs_Karin
 - 0.022 vrs_Ken + 0.024 vrs_Kolin + 0.046 vrs_Laura + 0.042 vrs_Lucia
 + 0.072 vrs_Menat + 0.09 vrs_Nash + 0.014 vrs_Necalli + 0.02 vrs_Poison
 - 0.012 vrs_R.Mika - 0.066 vrs_Rashid + 0.074 vrs_Rose + 0.026 vrs_Ryu
 + 0.086 vrs_Sagat - 0.034 vrs_Sakura + 0.154 vrs_Urien + 0.044 vrs_Zangief
 + 0.03 vrs_Zeku - vrs_w >= 0
_C79: 0.116 vrs_Abigail - 0.044 vrs_Akuma + 0.082 vrs_Alex + 0.082 vrs_BOXER
 + 0.082 vrs_Birdie + 0.092 vrs_Blanka + 0.07 vrs_CLAW - 0.026 vrs_Cammy
 - 0.026 vrs_ChunLi + 0.11 vrs_Cody + 0.04 vrs_DICTATOR + 0.006 vrs_Dan
 - 0.004 vrs_Dhalsim + 0.132 vrs_E.Honda + 0.122 vrs_Edd + 0.126 vrs_FANG
 + 0.156 vrs_Falke - 0.024 vrs_G + 0.162 vrs_Gill + 0.042 vrs_Guile
 + 0.018 vrs_Ibuki - 0.008 vrs_Juri + 0.034 vrs_Kage + 0.046 vrs_Karin
 + 0.056 vrs_Ken + 0.046 vrs_Kolin + 0.056 vrs_Laura + 0.048 vrs_Lucia
 - 0.118 vrs_Menat + 0.05 vrs_Nash + 0.014 vrs_Necalli - 0.062 vrs_Poison
 + 0.004 vrs_Rashid + 0.044 vrs_Rose + 0.06 vrs_Ryu + 0.038 vrs_Sagat
 - 0.058 vrs_Sakura + 0.012 vrs_Seth + 0.088 vrs_Urien + 0.128 vrs_Zangief
 + 0.03 vrs_Zeku - vrs_w >= 0
_C8: vrs_Alex >= 0
_C80: 0.034 vrs_Abigail + 0.068 vrs_Alex + 0.098 vrs_BOXER + 0.084 vrs_Birdie
 + 0.094 vrs_Blanka + 0.056 vrs_CLAW + 0.018 vrs_Cammy - 0.01 vrs_ChunLi
 + 0.054 vrs_Cody + 0.104 vrs_DICTATOR - 0.01 vrs_Dan + 0.134 vrs_Dhalsim
 + 0.104 vrs_E.Honda + 0.064 vrs_Edd + 0.052 vrs_FANG + 0.112 vrs_Falke
 + 0.014 vrs_G + 0.078 vrs_Gill + 0.104 vrs_Guile + 0.02 vrs_Ibuki
 + 0.022 vrs_Juri + 0.024 vrs_Kage + 0.048 vrs_Karin + 0.032 vrs_Ken
 + 0.034 vrs_Kolin + 0.042 vrs_Laura + 0.05 vrs_Lucia - 0.018 vrs_Menat
 + 0.048 vrs_Nash + 0.046 vrs_Necalli + 0.05 vrs_Poison + 0.044 vrs_R.Mika
 - 0.036 vrs_Rashid + 0.06 vrs_Rose + 0.014 vrs_Ryu + 0.056 vrs_Sagat
 - 0.044 vrs_Sakura + 0.048 vrs_Seth + 0.096 vrs_Urien + 0.108 vrs_Zangief
 + 0.082 vrs_Zeku - vrs_w >= 0
_C81: 0.108 vrs_Abigail - 0.018 vrs_Akuma + 0.108 vrs_Alex + 0.142 vrs_BOXER
 + 0.086 vrs_Birdie + 0.084 vrs_Blanka + 0.106 vrs_CLAW - 0.008 vrs_ChunLi
 + 0.126 vrs_Cody + 0.132 vrs_DICTATOR + 0.014 vrs_Dan + 0.038 vrs_Dhalsim
 + 0.242 vrs_E.Honda + 0.154 vrs_Edd + 0.016 vrs_FANG + 0.138 vrs_Falke
 + 0.076 vrs_G + 0.118 vrs_Gill + 0.054 vrs_Guile + 0.004 vrs_Ibuki
 + 0.054 vrs_Juri + 0.032 vrs_Kage + 0.028 vrs_Karin + 0.026 vrs_Ken
 + 0.064 vrs_Kolin + 0.042 vrs_Laura + 0.046 vrs_Lucia + 0.028 vrs_Menat
 + 0.044 vrs_Nash + 0.054 vrs_Necalli - 0.002 vrs_Poison + 0.026 vrs_R.Mika
 - 0.062 vrs_Rashid + 0.03 vrs_Rose + 0.026 vrs_Ryu + 0.112 vrs_Sagat
 - 0.012 vrs_Sakura + 0.086 vrs_Seth + 0.124 vrs_Urien + 0.102 vrs_Zangief
 + 0.092 vrs_Zeku - vrs_w >= 0
_C82: 0.016 vrs_Abigail + 0.036 vrs_Akuma + 0.054 vrs_Alex + 0.116 vrs_BOXER
 + 0.056 vrs_Birdie + 0.06 vrs_Blanka + 0.088 vrs_CLAW + 0.062 vrs_Cammy
 - 0.012 vrs_ChunLi + 0.128 vrs_Cody + 0.086 vrs_DICTATOR + 0.01 vrs_Dan
 - 0.07 vrs_Dhalsim + 0.172 vrs_E.Honda + 0.152 vrs_Edd + 0.066 vrs_FANG
 + 0.068 vrs_Falke + 0.016 vrs_G + 0.06 vrs_Gill + 0.086 vrs_Guile
 + 0.068 vrs_Ibuki + 0.036 vrs_Juri + 0.064 vrs_Kage + 0.054 vrs_Karin
 + 0.07 vrs_Ken + 0.068 vrs_Kolin + 0.114 vrs_Laura + 0.068 vrs_Lucia
 - 0.172 vrs_Menat + 0.032 vrs_Nash + 0.124 vrs_Necalli - 0.108 vrs_Poison
 - 0.004 vrs_R.Mika + 0.01 vrs_Rose + 0.05 vrs_Ryu - 0.002 vrs_Sagat
 + 0.056 vrs_Sakura + 0.066 vrs_Seth + 0.106 vrs_Urien + 0.068 vrs_Zangief
 + 0.074 vrs_Zeku - vrs_w >= 0
_C83: - 0.006 vrs_Abigail + 0.044 vrs_Akuma + 0.064 vrs_Alex + 0.134 vrs_BOXER
 + 0.07 vrs_Birdie + 0.13 vrs_Blanka + 0.074 vrs_CLAW + 0.012 vrs_Cammy
 + 0.004 vrs_ChunLi + 0.076 vrs_Cody + 0.136 vrs_DICTATOR - 0.004 vrs_Dan
 + 0.152 vrs_Dhalsim + 0.158 vrs_E.Honda + 0.08 vrs_Edd + 0.084 vrs_FANG
 + 0.152 vrs_Falke + 0.028 vrs_G + 0.086 vrs_Gill + 0.076 vrs_Guile
 + 0.062 vrs_Ibuki + 0.068 vrs_Juri + 0.054 vrs_Kage + 0.066 vrs_Karin
 + 0.04 vrs_Ken + 0.002 vrs_Kolin - 0.008 vrs_Laura + 0.06 vrs_Lucia
 - 0.012 vrs_Menat + 0.098 vrs_Nash + 0.052 vrs_Necalli + 0.018 vrs_Poison
 + 0.058 vrs_R.Mika - 0.056 vrs_Rashid + 0.094 vrs_Rose + 0.054 vrs_Ryu
 + 0.114 vrs_Sagat + 0.034 vrs_Seth + 0.124 vrs_Urien + 0.036 vrs_Zangief
 + 0.078 vrs_Zeku - vrs_w >= 0
_C84: 0.164 vrs_Abigail + 0.018 vrs_Akuma + 0.218 vrs_Alex + 0.206 vrs_BOXER
 + 0.102 vrs_Birdie + 0.246 vrs_Blanka + 0.194 vrs_CLAW - 0.028 vrs_Cammy
 - 0.074 vrs_ChunLi + 0.108 vrs_Cody + 0.204 vrs_DICTATOR + 0.028 vrs_Dan
 + 0.192 vrs_Dhalsim + 0.222 vrs_E.Honda + 0.162 vrs_Edd + 0.1 vrs_FANG
 + 0.22 vrs_Falke + 0.084 vrs_G + 0.028 vrs_Gill + 0.068 vrs_Guile
 + 0.062 vrs_Ibuki + 0.102 vrs_Juri + 0.04 vrs_Kage + 0.068 vrs_Karin
 + 0.04 vrs_Ken + 0.03 vrs_Kolin + 0.162 vrs_Laura + 0.08 vrs_Lucia
 + 0.152 vrs_Nash + 0.164 vrs_Necalli + 0.052 vrs_Poison + 0.118 vrs_R.Mika
 + 0.172 vrs_Rashid + 0.062 vrs_Rose + 0.002 vrs_Ryu + 0.016 vrs_Sagat
 + 0.012 vrs_Sakura - 0.072 vrs_Seth + 0.144 vrs_Urien - 0.094 vrs_Zangief
 + 0.144 vrs_Zeku - vrs_w >= 0
_C85: 0.106 vrs_Abigail + 0.01 vrs_Akuma + 0.1 vrs_Alex + 0.076 vrs_BOXER
 + 0.198 vrs_Birdie + 0.114 vrs_Blanka + 0.184 vrs_CLAW - 0.014 vrs_Cammy
 + 0.028 vrs_ChunLi + 0.108 vrs_Cody + 0.106 vrs_DICTATOR + 0.142 vrs_Dhalsim
 + 0.214 vrs_E.Honda + 0.17 vrs_Edd + 0.188 vrs_FANG + 0.166 vrs_Falke
 + 0.09 vrs_G + 0.172 vrs_Gill + 0.082 vrs_Guile + 0.034 vrs_Ibuki
 + 0.048 vrs_Juri + 0.058 vrs_Kage + 0.038 vrs_Karin + 0.068 vrs_Ken
 + 0.09 vrs_Kolin + 0.092 vrs_Laura + 0.066 vrs_Lucia - 0.028 vrs_Menat
 + 0.082 vrs_Nash + 0.064 vrs_Necalli + 0.066 vrs_Poison - 0.006 vrs_R.Mika
 - 0.01 vrs_Rashid + 0.076 vrs_Rose + 0.072 vrs_Ryu + 0.106 vrs_Sagat
 + 0.004 vrs_Sakura + 0.034 vrs_Seth + 0.224 vrs_Urien + 0.138 vrs_Zangief
 + 0.114 vrs_Zeku - vrs_w >= 0
_C86: vrs_Dan = 1
_C9: vrs_FANG >= 0
Bounds
vrs_Abigail free
vrs_Akuma free
vrs_Alex free
vrs_BOXER free
vrs_Birdie free
vrs_Blanka free
vrs_CLAW free
vrs_Cammy free
vrs_ChunLi free
vrs_Cody free
vrs_DICTATOR free
vrs_Dan free
vrs_Dhalsim free
vrs_E.Honda free
vrs_Edd free
vrs_FANG free
vrs_Falke free
vrs_G free
vrs_Gill free
vrs_Guile free
vrs_Ibuki free
vrs_Juri free
vrs_Kage free
vrs_Karin free
vrs_Ken free
vrs_Kolin free
vrs_Laura free
vrs_Lucia free
vrs_Menat free
vrs_Nash free
vrs_Necalli free
vrs_Poison free
vrs_R.Mika free
vrs_Rashid free
vrs_Rose free
vrs_Ryu free
vrs_Sagat free
vrs_Sakura free
vrs_Seth free
vrs_Urien free
vrs_Zangief free
vrs_Zeku free
vrs_w free
End
